(set-logic QF_LIA)
(declare-fun x0 () Int)
(declare-fun x1 () Int)
(declare-fun x2 () Int)
(declare-fun x3 () Int)
(declare-fun x4 () Int)
(declare-fun x5 () Int)
(declare-fun x6 () Int)
(declare-fun x7 () Int)
(declare-fun x8 () Int)
(declare-fun x9 () Int)
(declare-fun A0 () Bool)
(declare-fun A1 () Bool)
(declare-fun A2 () Bool)
(declare-fun A3 () Bool)
(declare-fun A4 () Bool)
(declare-fun A5 () Bool)
(declare-fun A6 () Bool)
(declare-fun A7 () Bool)
(declare-fun A8 () Bool)
(declare-fun A9 () Bool)
(assert (let ((.def_0 (* 1 x4))) (let ((.def_1 (< .def_0 1))) (let ((.def_2 (* 1 x0))) (let ((.def_3 (* (- 1) x5))) (let ((.def_4 (+ .def_3 .def_2))) (let ((.def_5 (< .def_4 1))) (let ((.def_6 (not .def_5))) (let ((.def_7 (or .def_6 .def_1))) (let ((.def_8 (< .def_3 (- 1)))) (let ((.def_9 (not .def_8))) (let ((.def_10 (* (- 1) x3))) (let ((.def_11 (< .def_10 (- 1)))) (let ((.def_12 (not .def_11))) (let ((.def_13 (and .def_12 .def_9))) (let ((.def_14 (not .def_13))) (let ((.def_15 (and .def_14 .def_7))) (let ((.def_16 (* (- 1) x2))) (let ((.def_17 (+ .def_0 .def_16))) (let ((.def_18 (< .def_17 1))) (let ((.def_19 (not .def_18))) (let ((.def_20 (* 1 x9))) (let ((.def_21 (+ .def_3 .def_20))) (let ((.def_22 (< .def_21 1))) (let ((.def_23 (and .def_22 .def_19))) (let ((.def_24 (not .def_23))) (let ((.def_25 (* 1 x3))) (let ((.def_26 (+ .def_0 .def_25))) (let ((.def_27 (< .def_26 (- 1)))) (let ((.def_28 (not .def_27))) (let ((.def_29 (* 1 x8))) (let ((.def_30 (< .def_29 1))) (let ((.def_31 (and .def_30 .def_28))) (let ((.def_32 (not .def_31))) (let ((.def_33 (or .def_32 .def_24))) (let ((.def_34 (or .def_33 .def_15))) (let ((.def_35 (not A7))) (let ((.def_36 (and A8 .def_35))) (let ((.def_37 (* (- 1) x9))) (let ((.def_38 (< .def_37 (- 1)))) (let ((.def_39 (not .def_38))) (let ((.def_40 (* 1 x1))) (let ((.def_41 (< .def_40 1))) (let ((.def_42 (or .def_41 .def_39))) (let ((.def_43 (not .def_42))) (let ((.def_44 (and .def_43 .def_36))) (let ((.def_45 (not .def_44))) (let ((.def_46 (+ .def_10 .def_37))) (let ((.def_47 (< .def_46 1))) (let ((.def_48 (not .def_47))) (let ((.def_49 (* 1 x5))) (let ((.def_50 (+ .def_37 .def_49))) (let ((.def_51 (< .def_50 1))) (let ((.def_52 (or .def_51 .def_48))) (let ((.def_53 (not A5))) (let ((.def_54 (and .def_53 A0))) (let ((.def_55 (or .def_54 .def_52))) (let ((.def_56 (or .def_55 .def_45))) (let ((.def_57 (or .def_56 .def_34))) (let ((.def_58 (not .def_57))) (let ((.def_59 (* (- 1) x1))) (let ((.def_60 (< .def_59 1))) (let ((.def_61 (or A6 .def_60))) (let ((.def_62 (not .def_61))) (let ((.def_63 (* (- 1) x4))) (let ((.def_64 (+ .def_63 .def_37))) (let ((.def_65 (< .def_64 1))) (let ((.def_66 (and .def_65 A3))) (let ((.def_67 (not .def_66))) (let ((.def_68 (and .def_67 .def_62))) (let ((.def_69 (not .def_68))) (let ((.def_70 (+ .def_29 .def_0))) (let ((.def_71 (< .def_70 1))) (let ((.def_72 (not .def_71))) (let ((.def_73 (and .def_38 .def_72))) (let ((.def_74 (not .def_73))) (let ((.def_75 (+ .def_16 .def_3))) (let ((.def_76 (< .def_75 1))) (let ((.def_77 (not .def_76))) (let ((.def_78 (* (- 1) x0))) (let ((.def_79 (< .def_78 1))) (let ((.def_80 (or .def_79 .def_77))) (let ((.def_81 (and .def_80 .def_74))) (let ((.def_82 (not .def_81))) (let ((.def_83 (and .def_82 .def_69))) (let ((.def_84 (not .def_83))) (let ((.def_85 (* 1 x6))) (let ((.def_86 (+ .def_85 .def_59))) (let ((.def_87 (< .def_86 (- 1)))) (let ((.def_88 (not A4))) (let ((.def_89 (or .def_88 .def_87))) (let ((.def_90 (not .def_89))) (let ((.def_91 (+ .def_59 .def_49))) (let ((.def_92 (< .def_91 1))) (let ((.def_93 (not .def_92))) (let ((.def_94 (= .def_93 A8))) (let ((.def_95 (not .def_94))) (let ((.def_96 (or .def_95 .def_90))) (let ((.def_97 (and A3 .def_11))) (let ((.def_98 (and A2 A8))) (let ((.def_99 (or .def_98 .def_97))) (let ((.def_100 (not .def_99))) (let ((.def_101 (and .def_100 .def_96))) (let ((.def_102 (not .def_101))) (let ((.def_103 (and .def_102 .def_84))) (let ((.def_104 (or .def_103 .def_58))) (let ((.def_105 (< .def_0 (- 1)))) (let ((.def_106 (< .def_20 1))) (let ((.def_107 (or .def_106 .def_105))) (let ((.def_108 (not .def_107))) (let ((.def_109 (not A1))) (let ((.def_110 (= .def_109 A4))) (let ((.def_111 (or .def_110 .def_108))) (let ((.def_112 (not A8))) (let ((.def_113 (or .def_112 A1))) (let ((.def_114 (+ .def_10 .def_59))) (let ((.def_115 (< .def_114 (- 1)))) (let ((.def_116 (not .def_115))) (let ((.def_117 (and A8 .def_116))) (let ((.def_118 (not .def_117))) (let ((.def_119 (and .def_118 .def_113))) (let ((.def_120 (and .def_119 .def_111))) (let ((.def_121 (+ .def_63 .def_20))) (let ((.def_122 (< .def_121 1))) (let ((.def_123 (or .def_122 A7))) (let ((.def_124 (+ .def_59 .def_20))) (let ((.def_125 (< .def_124 1))) (let ((.def_126 (not .def_125))) (let ((.def_127 (* 1 x7))) (let ((.def_128 (+ .def_127 .def_20))) (let ((.def_129 (< .def_128 (- 1)))) (let ((.def_130 (not .def_129))) (let ((.def_131 (and .def_130 .def_126))) (let ((.def_132 (and .def_131 .def_123))) (let ((.def_133 (< .def_17 (- 1)))) (let ((.def_134 (not .def_133))) (let ((.def_135 (not A0))) (let ((.def_136 (and .def_135 .def_134))) (let ((.def_137 (not A2))) (let ((.def_138 (< .def_37 1))) (let ((.def_139 (or .def_138 .def_137))) (let ((.def_140 (and .def_139 .def_136))) (let ((.def_141 (and .def_140 .def_132))) (let ((.def_142 (or .def_141 .def_120))) (let ((.def_143 (not .def_142))) (let ((.def_144 (or A1 A6))) (let ((.def_145 (* (- 1) x8))) (let ((.def_146 (< .def_145 (- 1)))) (let ((.def_147 (not .def_146))) (let ((.def_148 (* (- 1) x6))) (let ((.def_149 (+ .def_59 .def_148))) (let ((.def_150 (< .def_149 1))) (let ((.def_151 (not .def_150))) (let ((.def_152 (or .def_151 .def_147))) (let ((.def_153 (= .def_152 .def_144))) (let ((.def_154 (not .def_153))) (let ((.def_155 (+ .def_78 .def_40))) (let ((.def_156 (< .def_155 (- 1)))) (let ((.def_157 (or .def_112 .def_156))) (let ((.def_158 (* 1 x2))) (let ((.def_159 (+ .def_25 .def_158))) (let ((.def_160 (< .def_159 (- 1)))) (let ((.def_161 (not .def_79))) (let ((.def_162 (or .def_161 .def_160))) (let ((.def_163 (or .def_162 .def_157))) (let ((.def_164 (and .def_163 .def_154))) (let ((.def_165 (not .def_164))) (let ((.def_166 (not A9))) (let ((.def_167 (or A8 .def_166))) (let ((.def_168 (not .def_167))) (let ((.def_169 (+ .def_63 .def_148))) (let ((.def_170 (< .def_169 1))) (let ((.def_171 (+ .def_63 .def_2))) (let ((.def_172 (< .def_171 1))) (let ((.def_173 (and .def_172 .def_170))) (let ((.def_174 (and .def_173 .def_168))) (let ((.def_175 (not .def_174))) (let ((.def_176 (< .def_29 (- 1)))) (let ((.def_177 (not .def_176))) (let ((.def_178 (< .def_85 1))) (let ((.def_179 (not .def_178))) (let ((.def_180 (or .def_179 .def_177))) (let ((.def_181 (not .def_180))) (let ((.def_182 (and A9 .def_109))) (let ((.def_183 (not .def_182))) (let ((.def_184 (= .def_183 .def_181))) (let ((.def_185 (or .def_184 .def_175))) (let ((.def_186 (and .def_185 .def_165))) (let ((.def_187 (and .def_186 .def_143))) (let ((.def_188 (not .def_187))) (let ((.def_189 (and .def_188 .def_104))) (let ((.def_190 (not A6))) (let ((.def_191 (= .def_190 A1))) (let ((.def_192 (not .def_191))) (let ((.def_193 (< .def_127 1))) (let ((.def_194 (and .def_137 .def_193))) (let ((.def_195 (not .def_194))) (let ((.def_196 (or .def_195 .def_192))) (let ((.def_197 (+ .def_59 .def_0))) (let ((.def_198 (< .def_197 (- 1)))) (let ((.def_199 (not .def_198))) (let ((.def_200 (or .def_199 .def_178))) (let ((.def_201 (or A0 A3))) (let ((.def_202 (not .def_201))) (let ((.def_203 (or .def_202 .def_200))) (let ((.def_204 (not .def_203))) (let ((.def_205 (and .def_204 .def_196))) (let ((.def_206 (+ .def_85 .def_20))) (let ((.def_207 (< .def_206 (- 1)))) (let ((.def_208 (not .def_207))) (let ((.def_209 (+ .def_25 .def_20))) (let ((.def_210 (< .def_209 1))) (let ((.def_211 (not .def_210))) (let ((.def_212 (or .def_211 .def_208))) (let ((.def_213 (and A5 .def_53))) (let ((.def_214 (not .def_213))) (let ((.def_215 (and .def_214 .def_212))) (let ((.def_216 (< .def_148 (- 1)))) (let ((.def_217 (not .def_216))) (let ((.def_218 (or .def_217 A6))) (let ((.def_219 (not .def_60))) (let ((.def_220 (and A4 .def_219))) (let ((.def_221 (not .def_220))) (let ((.def_222 (and .def_221 .def_218))) (let ((.def_223 (not .def_222))) (let ((.def_224 (or .def_223 .def_215))) (let ((.def_225 (or .def_224 .def_205))) (let ((.def_226 (* (- 1) x7))) (let ((.def_227 (+ .def_226 .def_3))) (let ((.def_228 (< .def_227 1))) (let ((.def_229 (not .def_228))) (let ((.def_230 (< .def_148 1))) (let ((.def_231 (not .def_230))) (let ((.def_232 (or .def_231 .def_229))) (let ((.def_233 (+ .def_145 .def_25))) (let ((.def_234 (< .def_233 (- 1)))) (let ((.def_235 (< .def_49 1))) (let ((.def_236 (and .def_235 .def_234))) (let ((.def_237 (not .def_236))) (let ((.def_238 (= .def_237 .def_232))) (let ((.def_239 (not .def_238))) (let ((.def_240 (and A4 A2))) (let ((.def_241 (or A0 .def_112))) (let ((.def_242 (not .def_241))) (let ((.def_243 (and .def_242 .def_240))) (let ((.def_244 (and .def_243 .def_239))) (let ((.def_245 (not .def_244))) (let ((.def_246 (or A9 .def_35))) (let ((.def_247 (+ .def_49 .def_145))) (let ((.def_248 (< .def_247 1))) (let ((.def_249 (not .def_248))) (let ((.def_250 (= .def_18 .def_249))) (let ((.def_251 (not .def_250))) (let ((.def_252 (and .def_251 .def_246))) (let ((.def_253 (not .def_252))) (let ((.def_254 (and .def_147 A9))) (let ((.def_255 (not .def_254))) (let ((.def_256 (< .def_145 1))) (let ((.def_257 (and .def_256 .def_137))) (let ((.def_258 (and .def_257 .def_255))) (let ((.def_259 (or .def_258 .def_253))) (let ((.def_260 (not .def_259))) (let ((.def_261 (or .def_260 .def_245))) (let ((.def_262 (or .def_261 .def_225))) (let ((.def_263 (or A6 A1))) (let ((.def_264 (not .def_263))) (let ((.def_265 (+ .def_20 .def_3))) (let ((.def_266 (< .def_265 (- 1)))) (let ((.def_267 (or .def_266 .def_35))) (let ((.def_268 (not .def_267))) (let ((.def_269 (and .def_268 .def_264))) (let ((.def_270 (+ .def_37 .def_63))) (let ((.def_271 (< .def_270 (- 1)))) (let ((.def_272 (+ .def_127 .def_59))) (let ((.def_273 (< .def_272 (- 1)))) (let ((.def_274 (or .def_273 .def_271))) (let ((.def_275 (+ .def_127 .def_29))) (let ((.def_276 (< .def_275 1))) (let ((.def_277 (and A0 .def_276))) (let ((.def_278 (or .def_277 .def_274))) (let ((.def_279 (not .def_278))) (let ((.def_280 (and .def_279 .def_269))) (let ((.def_281 (+ .def_16 .def_127))) (let ((.def_282 (< .def_281 1))) (let ((.def_283 (not .def_282))) (let ((.def_284 (and .def_41 .def_283))) (let ((.def_285 (or .def_38 A1))) (let ((.def_286 (or .def_285 .def_284))) (let ((.def_287 (not .def_286))) (let ((.def_288 (and A2 .def_88))) (let ((.def_289 (+ .def_148 .def_145))) (let ((.def_290 (< .def_289 (- 1)))) (let ((.def_291 (< .def_20 (- 1)))) (let ((.def_292 (or .def_291 .def_290))) (let ((.def_293 (not .def_292))) (let ((.def_294 (or .def_293 .def_288))) (let ((.def_295 (not .def_294))) (let ((.def_296 (or .def_295 .def_287))) (let ((.def_297 (not .def_296))) (let ((.def_298 (and .def_297 .def_280))) (let ((.def_299 (< .def_78 (- 1)))) (let ((.def_300 (not .def_299))) (let ((.def_301 (+ .def_40 .def_10))) (let ((.def_302 (< .def_301 1))) (let ((.def_303 (and .def_302 .def_300))) (let ((.def_304 (not .def_303))) (let ((.def_305 (+ .def_49 .def_78))) (let ((.def_306 (< .def_305 (- 1)))) (let ((.def_307 (and A6 .def_306))) (let ((.def_308 (= .def_307 .def_304))) (let ((.def_309 (not .def_308))) (let ((.def_310 (+ .def_0 .def_145))) (let ((.def_311 (< .def_310 1))) (let ((.def_312 (not .def_311))) (let ((.def_313 (and .def_88 .def_312))) (let ((.def_314 (not .def_1))) (let ((.def_315 (or .def_314 A5))) (let ((.def_316 (or .def_315 .def_313))) (let ((.def_317 (not .def_316))) (let ((.def_318 (or .def_317 .def_309))) (let ((.def_319 (not .def_318))) (let ((.def_320 (and .def_109 A7))) (let ((.def_321 (< .def_226 (- 1)))) (let ((.def_322 (and .def_321 A8))) (let ((.def_323 (and .def_322 .def_320))) (let ((.def_324 (not .def_323))) (let ((.def_325 (< .def_63 (- 1)))) (let ((.def_326 (not .def_325))) (let ((.def_327 (or .def_326 .def_53))) (let ((.def_328 (and .def_230 A7))) (let ((.def_329 (and .def_328 .def_327))) (let ((.def_330 (or .def_329 .def_324))) (let ((.def_331 (not .def_330))) (let ((.def_332 (or .def_331 .def_319))) (let ((.def_333 (not .def_332))) (let ((.def_334 (and .def_333 .def_298))) (let ((.def_335 (not .def_334))) (let ((.def_336 (or .def_335 .def_262))) (let ((.def_337 (and .def_336 .def_189))) (let ((.def_338 (<= x9 1))) (let ((.def_339 (<= 0 x9))) (let ((.def_340 (<= x8 1))) (let ((.def_341 (<= 0 x8))) (let ((.def_342 (<= x7 1))) (let ((.def_343 (<= 0 x7))) (let ((.def_344 (<= x6 1))) (let ((.def_345 (<= 0 x6))) (let ((.def_346 (<= x5 1))) (let ((.def_347 (<= 0 x5))) (let ((.def_348 (<= x4 1))) (let ((.def_349 (<= 0 x4))) (let ((.def_350 (<= x3 1))) (let ((.def_351 (<= 0 x3))) (let ((.def_352 (<= x2 1))) (let ((.def_353 (<= 0 x2))) (let ((.def_354 (<= x1 1))) (let ((.def_355 (<= 0 x1))) (let ((.def_356 (<= x0 1))) (let ((.def_357 (<= 0 x0))) (let ((.def_358 (and .def_357 .def_356 .def_355 .def_354 .def_353 .def_352 .def_351 .def_350 .def_349 .def_348 .def_347 .def_346 .def_345 .def_344 .def_343 .def_342 .def_341 .def_340 .def_339 .def_338 .def_337))) .def_358))))))))))))))))))))))))))))))))))))))))))))))))))))))))))))))))))))))))))))))))))))))))))))))))))))))))))))))))))))))))))))))))))))))))))))))))))))))))))))))))))))))))))))))))))))))))))))))))))))))))))))))))))))))))))))))))))))))))))))))))))))))))))))))))))))))))))))))))))))))))))))))))))))))))))))))))))))))))))))))))))))))))))))))))))))))))))))))))))))))))
(check-sat)
